results_rootrelaxation/bin012_090_027.srr.sol
solution status: optimal solution found
objective value:                                   34
_var562_                            0.200000000000002 	(obj:5)
_var743_                            0.200000000000003 	(obj:2)
_var744_                            0.400000000000003 	(obj:3)
_var747_                            0.799999999999998 	(obj:2)
_var750_                            0.199999999999998 	(obj:4)
_var770_                            0.200000000000011 	(obj:4)
_var778_                            0.599999999999991 	(obj:2)
_var781_                            0.799999999999993 	(obj:4)
_var782_                            0.200000000000006 	(obj:5)
_var793_                            0.199999999999998 	(obj:5)
_var795_                            0.400000000000005 	(obj:3)
_var797_                            0.599999999999996 	(obj:3)
_var801_                            0.399999999999999 	(obj:4)
_var805_                            0.600000000000002 	(obj:4)
_var817_                            0.200000000000003 	(obj:3)
_var818_                            0.799999999999999 	(obj:2)
_var820_                            0.599999999999993 	(obj:2)
_var827_                            0.200000000000004 	(obj:5)
_var830_                            0.200000000000004 	(obj:2)
_var832_                            0.399999999999997 	(obj:4)
_var844_                            0.200000000000006 	(obj:3)
_var850_                            0.399999999999993 	(obj:3)
_var855_                            0.200000000000001 	(obj:2)
_var856_                            0.399999999999997 	(obj:3)
_var865_                            0.200000000000002 	(obj:3)
_var867_                            0.200000000000002 	(obj:4)
_var870_                            0.199999999999995 	(obj:5)
_var875_                            0.199999999999995 	(obj:2)
_var878_                                          0.2 	(obj:2)
_var883_                            0.199999999999999 	(obj:2)
_var884_                            0.199999999999999 	(obj:2)
_var891_                            0.200000000000001 	(obj:5)
