results_rootrelaxation/bin012_090_027.srr.log
SCIP version 8.0.3.5 [precision: 8 byte] [memory: block] [mode: optimized] [LP solver: Soplex 6.0.1.3] [GitHash: 438792519e]
Copyright (c) 2002-2023 Zuse Institute Berlin (ZIB)

External libraries: 
  Readline 8.1         GNU library for command line editing (gnu.org/s/readline)
  Soplex 6.0.1.3       Linear Programming Solver developed at Zuse Institute Berlin (soplex.zib.de) [GitHash: 713be0fe]
  CppAD 20180000.0     Algorithmic Differentiation of C++ algorithms developed by B. Bell (github.com/coin-or/CppAD)
  ZLIB 1.2.11          General purpose compression library by J. Gailly and M. Adler (zlib.net)
  bliss 0.77           Computing Graph Automorphism Groups by T. Junttila and P. Kaski (www.tcs.hut.fi/Software/bliss/)

user parameter file <scip.set> not found - using default parameters

srr/relaxation = TRUE

read problem <instances/bin012_090_027.srr>
============

Original problem: 
original problem has 0 variables (0 bin, 0 int, 0 impl, 0 cont) and 77 constraints

presolving:
presolving (1 rounds: 1 fast, 1 medium, 1 exhaustive):
 0 deleted vars, 0 deleted constraints, 0 added constraints, 0 tightened bounds, 0 added holes, 0 changed sides, 0 changed coefficients
 0 implications, 0 cliques
presolved problem has 0 variables (0 bin, 0 int, 0 impl, 0 cont) and 77 constraints
     77 constraints of type <linear>
Presolving Time: 0.00

 time | node  | left  |LP iter|LP it/n|mem/heur|mdpt |vars |cons |rows |cuts |sepa|confs|strbr|  dualbound   | primalbound  |  gap   | compl. 
  0.0s|     1 |     0 |     1 |     - |   710k |   0 |   1 |  77 |  77 |   0 |  0 |   0 |   0 |      --      |      --      |    Inf | unknown
r 0.0s|     1 |     0 |  1053 |     - |simplero|   0 | 710 |  77 |  77 |   0 |  0 |   0 |   0 |      --      | 4.743543e+01 |    Inf | unknown
r 0.0s|     1 |     0 |  1092 |     - |simplero|   0 | 721 |  77 |  77 |   0 |  0 |   0 |   0 |      --      | 4.638863e+01 |    Inf | unknown
r 0.1s|     1 |     0 |  1150 |     - |simplero|   0 | 732 |  77 |  77 |   0 |  0 |   0 |   0 |      --      | 4.479484e+01 |    Inf | unknown
r 0.1s|     1 |     0 |  1198 |     - |simplero|   0 | 743 |  77 |  77 |   0 |  0 |   0 |   0 |      --      | 4.390065e+01 |    Inf | unknown
r 0.1s|     1 |     0 |  1294 |     - |simplero|   0 | 754 |  77 |  77 |   0 |  0 |   0 |   0 |      --      | 4.195950e+01 |    Inf | unknown
r 0.1s|     1 |     0 |  1340 |     - |simplero|   0 | 765 |  77 |  77 |   0 |  0 |   0 |   0 |      --      | 4.082473e+01 |    Inf | unknown
r 0.1s|     1 |     0 |  1367 |     - |simplero|   0 | 765 |  77 |  77 |   0 |  0 |   0 |   0 |      --      | 4.056414e+01 |    Inf | unknown
r 0.1s|     1 |     0 |  1369 |     - |simplero|   0 | 765 |  77 |  77 |   0 |  0 |   0 |   0 |      --      | 4.056357e+01 |    Inf | unknown
r 0.1s|     1 |     0 |  1436 |     - |simplero|   0 | 776 |  77 |  77 |   0 |  0 |   0 |   0 |      --      | 3.934115e+01 |    Inf | unknown
r 0.1s|     1 |     0 |  1452 |     - |simplero|   0 | 776 |  77 |  77 |   0 |  0 |   0 |   0 |      --      | 3.927838e+01 |    Inf | unknown
r 0.1s|     1 |     0 |  1466 |     - |simplero|   0 | 776 |  77 |  77 |   0 |  0 |   0 |   0 |      --      | 3.926031e+01 |    Inf | unknown
r 0.1s|     1 |     0 |  1506 |     - |simplero|   0 | 787 |  77 |  77 |   0 |  0 |   0 |   0 |      --      | 3.867816e+01 |    Inf | unknown
r 0.1s|     1 |     0 |  1527 |     - |simplero|   0 | 787 |  77 |  77 |   0 |  0 |   0 |   0 |      --      | 3.843506e+01 |    Inf | unknown
r 0.1s|     1 |     0 |  1530 |     - |simplero|   0 | 787 |  77 |  77 |   0 |  0 |   0 |   0 |      --      | 3.843210e+01 |    Inf | unknown
 time | node  | left  |LP iter|LP it/n|mem/heur|mdpt |vars |cons |rows |cuts |sepa|confs|strbr|  dualbound   | primalbound  |  gap   | compl. 
r 0.1s|     1 |     0 |  1580 |     - |simplero|   0 | 798 |  77 |  77 |   0 |  0 |   0 |   0 |      --      | 3.710291e+01 |    Inf | unknown
r 0.1s|     1 |     0 |  1587 |     - |simplero|   0 | 798 |  77 |  77 |   0 |  0 |   0 |   0 |      --      | 3.708622e+01 |    Inf | unknown
r 0.1s|     1 |     0 |  1591 |     - |simplero|   0 | 798 |  77 |  77 |   0 |  0 |   0 |   0 |      --      | 3.707666e+01 |    Inf | unknown
r 0.1s|     1 |     0 |  1592 |     - |simplero|   0 | 798 |  77 |  77 |   0 |  0 |   0 |   0 |      --      | 3.707660e+01 |    Inf | unknown
r 0.1s|     1 |     0 |  1637 |     - |simplero|   0 | 809 |  77 |  77 |   0 |  0 |   0 |   0 |      --      | 3.664881e+01 |    Inf | unknown
r 0.1s|     1 |     0 |  1662 |     - |simplero|   0 | 809 |  77 |  77 |   0 |  0 |   0 |   0 |      --      | 3.659107e+01 |    Inf | unknown
r 0.1s|     1 |     0 |  1672 |     - |simplero|   0 | 809 |  77 |  77 |   0 |  0 |   0 |   0 |      --      | 3.656485e+01 |    Inf | unknown
r 0.1s|     1 |     0 |  1674 |     - |simplero|   0 | 809 |  77 |  77 |   0 |  0 |   0 |   0 |      --      | 3.656463e+01 |    Inf | unknown
r 0.1s|     1 |     0 |  1730 |     - |simplero|   0 | 820 |  77 |  77 |   0 |  0 |   0 |   0 |      --      | 3.592700e+01 |    Inf | unknown
r 0.1s|     1 |     0 |  1755 |     - |simplero|   0 | 820 |  77 |  77 |   0 |  0 |   0 |   0 |      --      | 3.578152e+01 |    Inf | unknown
r 0.1s|     1 |     0 |  1764 |     - |simplero|   0 | 820 |  77 |  77 |   0 |  0 |   0 |   0 |      --      | 3.574010e+01 |    Inf | unknown
r 0.1s|     1 |     0 |  1765 |     - |simplero|   0 | 820 |  77 |  77 |   0 |  0 |   0 |   0 |      --      | 3.573950e+01 |    Inf | unknown
r 0.1s|     1 |     0 |  1810 |     - |simplero|   0 | 831 |  77 |  77 |   0 |  0 |   0 |   0 |      --      | 3.523857e+01 |    Inf | unknown
r 0.1s|     1 |     0 |  1824 |     - |simplero|   0 | 831 |  77 |  77 |   0 |  0 |   0 |   0 |      --      | 3.520970e+01 |    Inf | unknown
r 0.1s|     1 |     0 |  1828 |     - |simplero|   0 | 831 |  77 |  77 |   0 |  0 |   0 |   0 |      --      | 3.520788e+01 |    Inf | unknown
 time | node  | left  |LP iter|LP it/n|mem/heur|mdpt |vars |cons |rows |cuts |sepa|confs|strbr|  dualbound   | primalbound  |  gap   | compl. 
  0.1s|     1 |     0 |  1863 |     - |  4133k |   0 | 842 |  77 |  77 |   0 |  0 |   0 |   0 |      --      | 3.520788e+01 |    Inf | unknown
r 0.1s|     1 |     0 |  1863 |     - |simplero|   0 | 842 |  77 |  77 |   0 |  0 |   0 |   0 |      --      | 3.507525e+01 |    Inf | unknown
r 0.1s|     1 |     0 |  1885 |     - |simplero|   0 | 842 |  77 |  77 |   0 |  0 |   0 |   0 |      --      | 3.495688e+01 |    Inf | unknown
r 0.1s|     1 |     0 |  1900 |     - |simplero|   0 | 842 |  77 |  77 |   0 |  0 |   0 |   0 |      --      | 3.491735e+01 |    Inf | unknown
r 0.1s|     1 |     0 |  1908 |     - |simplero|   0 | 842 |  77 |  77 |   0 |  0 |   0 |   0 |      --      | 3.489951e+01 |    Inf | unknown
r 0.1s|     1 |     0 |  1935 |     - |simplero|   0 | 853 |  77 |  77 |   0 |  0 |   0 |   0 |      --      | 3.473844e+01 |    Inf | unknown
r 0.1s|     1 |     0 |  1939 |     - |simplero|   0 | 853 |  77 |  77 |   0 |  0 |   0 |   0 |      --      | 3.473151e+01 |    Inf | unknown
r 0.1s|     1 |     0 |  1971 |     - |simplero|   0 | 864 |  77 |  77 |   0 |  0 |   0 |   0 |      --      | 3.457598e+01 |    Inf | unknown
r 0.1s|     1 |     0 |  1990 |     - |simplero|   0 | 864 |  77 |  77 |   0 |  0 |   0 |   0 |      --      | 3.450466e+01 |    Inf | unknown
r 0.1s|     1 |     0 |  2031 |     - |simplero|   0 | 875 |  77 |  77 |   0 |  0 |   0 |   0 |      --      | 3.432088e+01 |    Inf | unknown
r 0.1s|     1 |     0 |  2036 |     - |simplero|   0 | 875 |  77 |  77 |   0 |  0 |   0 |   0 |      --      | 3.431832e+01 |    Inf | unknown
r 0.1s|     1 |     0 |  2041 |     - |simplero|   0 | 875 |  77 |  77 |   0 |  0 |   0 |   0 |      --      | 3.431780e+01 |    Inf | unknown
r 0.1s|     1 |     0 |  2093 |     - |simplero|   0 | 885 |  77 |  77 |   0 |  0 |   0 |   0 |      --      | 3.408941e+01 |    Inf | unknown
r 0.1s|     1 |     0 |  2095 |     - |simplero|   0 | 885 |  77 |  77 |   0 |  0 |   0 |   0 |      --      | 3.408935e+01 |    Inf | unknown
r 0.1s|     1 |     0 |  2132 |     - |simplero|   0 | 896 |  77 |  77 |   0 |  0 |   0 |   0 |      --      | 3.400000e+01 |    Inf | unknown
 time | node  | left  |LP iter|LP it/n|mem/heur|mdpt |vars |cons |rows |cuts |sepa|confs|strbr|  dualbound   | primalbound  |  gap   | compl. 
  0.1s|     1 |     0 |  2161 |     - |  4480k |   0 | 907 |  77 |  77 |   0 |  0 |   0 |   0 | 3.400000e+01 | 3.400000e+01 |   0.00%| unknown
  0.1s|     1 |     0 |  2161 |     - |  4480k |   0 | 907 |  77 |  77 |   0 |  0 |   0 |   0 | 3.400000e+01 | 3.400000e+01 |   0.00%| unknown

SCIP Status        : problem is solved [optimal solution found]
Solving Time (sec) : 0.09
Solving Nodes      : 1
Primal Bound       : +3.40000000000000e+01 (43 solutions)
Dual Bound         : +3.40000000000000e+01
Gap                : 0.00 %

written transformed problem to file <results_rootrelaxation/bin012_090_027.srr.lp>
written transformed problem to file <results_rootrelaxation/bin012_090_027.srr.cip>

written solution information to file <results_rootrelaxation/bin012_090_027.srr.sol>



